346 20
138 430
183 220
419 139
292 85
184 375
401 303
293 240
357 21
383 467
618 37
110 174
391 383
283 320
55 11
520 247
337 375
611 276
147 48
593 440
174 149
639 385
347 295
430 214
475 4
647 495
512 25
603 407
667 335
50 107
649 499
395 244
122 145
186 426
359 72
614 482
532 218
450 101
24 355
241 283
114 229
178 10
242 438
306 366
351 156
396 93
460 21
471 449
497 395
389 332
262 278
326 59
543 487
435 424
480 214
525 151
571 243
298 497
362 425
445 197
490 134
535 71
599 352
663 280
27 208
600 7
327 408
608 117
691 36
55 317
291 236
546 146
610 427
146 346
64 82
